WARNING: for repeatability, setting FPU to use double precision
============================[ Problem Statistics ]=============================
|                                                                             |
|  Number of variables:            50                                         |
|  Number of clauses:             218                                         |
|  Parse time:                   0.00 s                                       |
|                                                                             |
============================[ Search Statistics ]==============================
| Conflicts |          ORIGINAL         |          LEARNT          | Progress |
|           |    Vars  Clauses Literals |    Limit  Clauses Lit/Cl |          |
===============================================================================
===============================================================================
restarts              : 1
conflicts             : 67             (44726 /sec)
decisions             : 71             (0.00 % random) (47397 /sec)
propagations          : 853            (569426 /sec)
conflict literals     : 240            (16.08 % deleted)
Memory used           : 20.00 MB
CPU time              : 0.001498 s

UNSATISFIABLE
